% project_assignment_1.dzn

n = 6; % 25 students to consider
p = 6; % topics
l = 6; % lecturers

projectToLecturer = [5, 3, 6, 4, 2, 1];

% student 1 ranks project 1 at 3, project 2 at 5, etc. 
studentProjectRanks = 
[|3, 5, 2, 4, 1, 6|
  1, 6, 4, 5, 2, 3|
  2, 1, 3, 6, 5, 4|
  4, 3, 1, 5, 6, 2|
  6, 5, 4, 2, 3, 1|
  2, 3, 5, 6, 1, 4|];
  
% Random min and max values for minPerLecturer and maxPerLecturer
minPerLecturer = 1; 
maxPerLecturer = 10; 

% Random min and max values for minPerProject and maxPerProject
minPerProject = 1; 
maxPerProject = 10;
